92 70 
93 13 
52 15 
22 17 
23 42 
78 4 
83 0 
19 4 
92 63 
74 60 
40 24 
6 72 
4 45 
49 32 
77 26 
3 21 
49 49 
86 53 
64 61 
22 39 
3 0 
95 86 
52 15 
42 44 
30 17 
5 70 
93 63 
42 98 
60 43 
82 37 
22 37 
10 23 
38 49 
76 2 
10 50 
93 65 
50 89 
3 54 
4 45 
99 34 
14 56 
56 8 
19 51 
58 79 
94 92 
68 16 
81 30 
91 20 
79 67 
74 41 
